9	2	12	6	18	14	14	2	16	15
8	17	3	3	6	20	2	19	10	5
2	5	14	4	17	4	5	15	10	13
15	19	15	4	5	3	4	16	14	11
10	12	17	1	10	11	12	18	18	12
20	6	4	18	8	11	13	4	8	2
2	12	7	4	1	16	18	15	12	20
3	8	17	4	1	9	11	3	20	11
18	20	18	1	6	6	15	16	20	7
